Route #1: 32 24 46 35
Route #2: 20 41 22 15
Route #3: 5 31 95
Route #4: 73 53 33
Route #5: 93 75
Route #6: 30 85 11 79
Route #7: 50 23 100 21
Route #8: 61 97
Route #9: 91 52 81
Route #10: 83 71 51
Route #11: 62 99 98 89
Route #12: 27 8
Route #13: 80 17 64 34
Route #14: 3 96 94
Route #15: 56 40 88 77 14
Route #16: 63 25 39
Route #17: 10 65 42
Route #18: 78 6 49 2 7
Route #19: 37 36 29 43 45
Route #20: 59 67 28
Route #21: 60 57 72 82 87
Route #22: 38 47 26 48 44
Route #23: 58 12
Route #24: 18 4 66
Route #25: 84 90 76 55 69
Route #26: 74 13
Route #27: 16 54
Route #28: 92 9 68
Route #29: 86 1
Route #30: 70 19
Cost 32204
